NAME : lr205.1054015.tour
COMMENT : Cost = 0_1054015
COMMENT : Found by LKH [Keld Helsgaun] Fri Sep 15 17:42:01 2017
TYPE : TOUR
DIMENSION : 105
TOUR_SECTION
1
28
29
13
77
34
72
66
79
30
80
82
102
52
31
21
67
10
36
35
4
51
27
105
6
84
46
83
48
37
65
64
12
20
63
8
89
32
70
53
19
100
7
95
54
41
74
23
42
44
58
75
57
5
26
56
55
25
81
69
103
78
2
71
49
90
104
96
60
93
15
43
16
73
40
68
24
76
22
3
88
99
86
45
39
87
17
62
85
9
11
91
33
50
47
18
61
97
98
38
101
92
94
14
59
-1
EOF
